
Log started (V22.1.1.0) Wed Apr 10 16:38:07 2024

New value for mixed integer optimality gap tolerance: 0.0002
New value for time limit in seconds: 14400
New value for integrality tolerance: 0
New value for feasibility tolerance: 1e-08

Problem '/tmp/224232.1.RCCS/tmp4v3h3e28.pyomo.lp' read.
Read time = 0.05 sec. (4.09 ticks)

Problem name         : /tmp/224232.1.RCCS/tmp4v3h3e28.pyomo.lp
Objective sense      : Minimize
Variables            :   23694  [Nneg: 1,  Box: 22663,  Binary: 46,
                                 General Integer: 984]
Objective nonzeros   :       2
Linear constraints   :   51371  [Less: 25018,  Greater: 2728,  Equal: 23625]
  Nonzeros           :   86761
  RHS nonzeros       :    2728

Variables            : Min LB: 0.000000         Max UB: 1.000000e+10   
Objective nonzeros   : Min   : 0.1187400        Max   : 1.000000       
Linear constraints   :
  Nonzeros           : Min   : 0.02000000       Max   : 1084852.       
  RHS nonzeros       : Min   : 1.000000         Max   : 2.166667e+07   
Version identifier: 22.1.1.0 | 2022-11-28 | 9160aff4d
CPXPARAM_Simplex_Tolerances_Feasibility          1e-08
CPXPARAM_TimeLimit                               14400
CPXPARAM_MIP_Tolerances_MIPGap                   0.00020000000000000001
CPXPARAM_MIP_Tolerances_Integrality              0
Tried aggregator 2 times.
MIP Presolve eliminated 50262 rows and 22108 columns.
MIP Presolve modified 203 coefficients.
Aggregator did 548 substitutions.
Reduced MIP has 561 rows, 1038 columns, and 3537 nonzeros.
Reduced MIP has 486 binaries, 28 generals, 0 SOSs, and 0 indicators.
Presolve time = 0.02 sec. (38.84 ticks)
Found incumbent of value 9773198.288706 after 0.03 sec. (42.81 ticks)
Probing time = 0.01 sec. (21.72 ticks)
Tried aggregator 1 time.
Detecting symmetries...
MIP Presolve eliminated 13 rows and 12 columns.
MIP Presolve modified 1 coefficients.
Reduced MIP has 548 rows, 1026 columns, and 3491 nonzeros.
Reduced MIP has 486 binaries, 28 generals, 0 SOSs, and 0 indicators.
Presolve time = 0.00 sec. (3.72 ticks)
Probing time = 0.01 sec. (3.52 ticks)
Clique table members: 14.
MIP emphasis: balance optimality and feasibility.
MIP search method: dynamic search.
Parallel mode: deterministic, using up to 32 threads.
Root relaxation solution time = 0.02 sec. (17.35 ticks)

        Nodes                                         Cuts/
   Node  Left     Objective  IInf  Best Integer    Best Bound    ItCnt     Gap

*     0+    0                      9773198.2887        0.0000           100.00%
*     0+    0                      6422347.0839        0.0000           100.00%
*     0+    0                      6401179.0616        0.0000           100.00%
*     0+    0                      4228031.8839        0.0000           100.00%
*     0+    0                      4206863.8616        0.0000           100.00%
*     0+    0                      2033716.6839        0.0000           100.00%
*     0+    0                      2012548.6616        0.0000           100.00%
*     0+    0                       931064.7416        0.0000           100.00%
      0     0    67300.5401     4   931064.7416    67300.5401      676   92.77%
*     0+    0                       124427.1338    67300.5401            45.91%
*     0+    0                       121857.1016    67300.5401            44.77%
      0     0    73830.7439     1   121857.1016      Cuts: 11      853   39.41%
*     0+    0                        76376.7388    73830.7439             3.33%
      0     0    74155.0248     3    76376.7388       Cuts: 3      859    2.91%
Detecting symmetries...

Repeating presolve.
Tried aggregator 2 times.
MIP Presolve eliminated 468 rows and 916 columns.
MIP Presolve modified 40 coefficients.
Aggregator did 14 substitutions.
Reduced MIP has 66 rows, 96 columns, and 302 nonzeros.
Reduced MIP has 36 binaries, 15 generals, 0 SOSs, and 0 indicators.
Presolve time = 0.00 sec. (1.22 ticks)
Probing fixed 7 vars, tightened 56 bounds.
Probing changed sense of 3 constraints.
Probing time = 0.00 sec. (0.18 ticks)
Tried aggregator 2 times.
MIP Presolve eliminated 11 rows and 15 columns.
MIP Presolve modified 13 coefficients.
Aggregator did 1 substitutions.
Reduced MIP has 54 rows, 80 columns, and 246 nonzeros.
Reduced MIP has 27 binaries, 15 generals, 0 SOSs, and 0 indicators.
Presolve time = 0.00 sec. (0.27 ticks)
Probing fixed 1 vars, tightened 1 bounds.
Probing time = 0.00 sec. (0.11 ticks)
Cover probing fixed 0 vars, tightened 4 bounds.
Tried aggregator 1 time.
MIP Presolve eliminated 2 rows and 2 columns.
Reduced MIP has 52 rows, 78 columns, and 238 nonzeros.
Reduced MIP has 26 binaries, 15 generals, 0 SOSs, and 0 indicators.
Presolve time = 0.00 sec. (0.13 ticks)
Probing fixed 0 vars, tightened 7 bounds.
Probing time = 0.00 sec. (0.11 ticks)
Tried aggregator 1 time.
Detecting symmetries...
MIP Presolve modified 3 coefficients.
Reduced MIP has 52 rows, 78 columns, and 238 nonzeros.
Reduced MIP has 26 binaries, 15 generals, 0 SOSs, and 0 indicators.
Presolve time = 0.00 sec. (0.17 ticks)
Represolve time = 0.02 sec. (23.29 ticks)
Probing fixed 0 vars, tightened 7 bounds.
Probing time = 0.00 sec. (0.10 ticks)
Clique table members: 3.
MIP emphasis: balance optimality and feasibility.
MIP search method: dynamic search.
Parallel mode: deterministic, using up to 32 threads.
Root relaxation solution time = 0.00 sec. (0.50 ticks)

        Nodes                                         Cuts/
   Node  Left     Objective  IInf  Best Integer    Best Bound    ItCnt     Gap

*     0+    0                        76376.7388    74155.0248             2.91%
      0     0    74321.5940     3    76376.7388    74321.5940      942    2.69%
      0     0    75373.7480     3    76376.7388       Cuts: 6      950    1.31%
      0     0        cutoff          76376.7388    76376.7388      950    0.00%
Elapsed time = 0.54 sec. (167.46 ticks, tree = 0.01 MB, solutions = 11)

Cover cuts applied:  1
Flow cuts applied:  1
Mixed integer rounding cuts applied:  4
Gomory fractional cuts applied:  3

Root node processing (before b&c):
  Real time             =    0.54 sec. (169.68 ticks)
Parallel b&c, 32 threads:
  Real time             =    0.00 sec. (0.00 ticks)
  Sync time (average)   =    0.00 sec.
  Wait time (average)   =    0.00 sec.
                          ------------
Total (root+branch&cut) =    0.54 sec. (169.68 ticks)

Solution pool: 11 solutions saved.

MIP - Integer optimal solution:  Objective =  7.6376738814e+04
Solution time =    0.55 sec.  Iterations = 950  Nodes = 0
Deterministic time = 169.75 ticks  (308.57 ticks/sec)


Incumbent solution written to file '/tmp/224232.1.RCCS/tmp8k22m8c_.cplex.sol'.
